NAME : kroB150.45747.tour
COMMENT : Cost = 0_45747
COMMENT : Found by LKH [Keld Helsgaun] Thu Nov 16 16:23:55 2017
TYPE : TOUR
DIMENSION : 169
TOUR_SECTION
1
53
169
130
168
132
61
26
7
82
78
9
37
120
16
135
146
127
51
63
44
66
48
103
128
84
11
52
150
87
96
144
97
136
81
45
33
100
74
57
36
10
92
19
105
99
141
14
143
93
167
110
20
64
42
55
67
47
31
65
147
115
77
80
104
149
6
54
134
75
22
112
8
106
17
25
90
34
58
88
148
98
109
145
114
108
113
138
62
83
126
72
124
71
38
39
28
101
56
119
5
43
86
133
50
95
91
123
94
129
131
139
121
76
111
70
102
23
35
2
68
30
21
122
89
41
59
118
73
3
69
140
60
4
116
165
32
166
49
18
29
164
107
163
142
162
13
161
117
160
79
159
24
158
46
157
12
156
15
155
125
154
27
153
40
152
137
151
85
-1
EOF
